NAME : in_house_8_23
TYPE : TSP
DIMENSION : 8
EDGE_WEIGHT_TYPE : EXPLICIT
EDGE_WEIGHT_FORMAT : UPPER_ROW
COMMENT : INVERSION_SHIFT=5
EDGE_WEIGHT_SECTION
13
27
55
52
17
38
33
61
27
55
13
45
11
17
43
57
34
52
11
55
62
34
58
37
12
24
26
11
